NAME: tsp20-30
TYPE: TSP
DIMENSION: 20
EDGE_WEIGHT_TYPE: EUC_2D
NODE_COORD_SECTION
0 57 69
1 46 35
2 13 40
3 81 66
4 49 100
5 76 46
6 84 63
7 98 16
8 52 94
9 53 13
10 1 85
11 51 56
12 80 24
13 59 27
14 26 65
15 38 23
16 30 69
17 98 33
18 17 44
19 22 7
EOF